Source Codes/LKH/tmp.tsp
NAME : tmp
TYPE : TSP
COMMENT : tmp file from wrapper_linkern.
DIMENSION : 6
EDGE_WEIGHT_TYPE : EXPLICIT
EDGE_WEIGHT_FORMAT : FULL_MATRIX
EDGE_WEIGHT_SECTION
0 25453 26049 11882 43024 41169 25453 0 48332 27390 25275 29559 26049 48332 0 46372 26325 26330 11882 27390 46372 0 41577 37956 43024 25275 26325 41577 0 44521 41169 29559 26330 37956 44521 0 
EOF
